71
125
87	2
86	2
84	3
83	4
82	4
81	2
80	3
79	6
78	2
77	5
76	1
75	1
74	8
73	2
72	4
71	2
70	2
69	2
68	7
67	3
65	2
64	2
63	2
62	5
61	3
59	1
58	1
57	2
56	5
55	1
54	3
53	4
52	1
51	3
50	2
49	3
48	4
47	2
46	4
45	4
44	3
43	5
42	2
41	1
40	2
39	5
38	5
37	2
35	2
34	6
33	2
32	4
31	1
30	4
29	2
28	1
27	3
26	1
25	5
24	1
23	3
21	1
20	2
19	1
18	1
17	2
16	2
15	3
14	2
13	5
12	2
